NAME : pr264.56270.tour
COMMENT : Cost = 0_56270
COMMENT : Found by LKH [Keld Helsgaun] Thu Nov 16 16:24:32 2017
TYPE : TOUR
DIMENSION : 273
TOUR_SECTION
1
40
273
36
62
63
116
117
118
129
119
120
121
272
35
33
32
31
65
64
115
114
113
112
111
110
67
66
30
29
28
27
26
25
69
68
109
108
107
106
105
104
71
70
24
23
22
21
20
19
73
72
103
102
101
100
99
98
75
74
18
17
16
15
14
13
77
76
97
96
95
94
93
92
79
78
12
11
10
9
8
7
81
80
91
90
89
86
83
82
6
5
4
3
2
84
85
87
88
132
131
130
134
133
199
196
197
198
202
201
200
203
259
260
257
258
204
205
193
194
195
135
136
192
191
190
207
206
256
255
261
262
263
254
253
209
208
189
188
187
137
138
186
185
184
211
210
252
251
250
249
213
212
183
182
181
139
140
180
179
178
215
214
248
247
246
245
217
216
177
176
175
141
142
172
173
174
218
219
243
244
241
242
220
221
169
170
171
143
144
166
167
168
222
223
239
240
264
237
238
224
225
163
164
165
145
146
147
148
162
161
226
160
159
158
149
155
156
157
227
228
235
236
233
232
234
229
230
231
151
152
153
154
150
128
54
53
52
51
50
56
55
127
126
125
124
123
122
58
57
49
48
47
46
45
44
59
43
42
271
34
270
60
269
61
268
37
267
38
266
39
265
41
-1
EOF
